Maximize
  - 0.7617004848460001 edge_0_1_0_0 - 0.0904369502715 edge_0_2_0_0
   - 2.950340676894 edge_0_3_0_0 - 3.6468564125625 edge_0_4_0_0
   - 2.3928374161188 edge_0_6_0_0 - 2.9043444545556 edge_0_7_0_0
   - 1.0058854543203 edge_0_8_0_0 - 3.450860654204 edge_0_10_0_0
   - 2.8276750426106 edge_0_11_0_0 - 3.138390835872 edge_0_13_0_0
   + 0.3977425428461021 edge_1_1_0_0 + 1.243428018491422 edge_1_2_0_0
   + 0.7973938642322265 edge_1_3_0_0 + 0.3162219339860764 edge_1_4_0_0
   + 0.2464720631513793 edge_1_6_0_0 + 0.1387682632927323 edge_1_7_0_0
   + 0.3752430994092705 edge_1_8_0_0 - 0.8640694568573821 edge_1_9_0_0
   - 0.3147668807810169 edge_1_10_0_0 - 0.1509616960313531 edge_1_11_0_0
   - 0.2361701261549779 edge_1_13_0_0 + 1.030077947136772 edge_1_16_0_0
   + 2.457604122871989 edge_2_1_0_0 + 2.367716450365 edge_2_3_0_0
   + 1.840251809177289 edge_2_4_0_0 + 1.291285943959058 edge_2_6_0_0
   - 0.3340309127456966 edge_2_7_0_0 + 2.37043347443575 edge_2_8_0_0
   - 1.078410880358518 edge_2_9_0_0 + 0.2354017669178447 edge_2_10_0_0
   + 0.3295284110250473 edge_2_11_0_0 + 0.3051824668674688 edge_2_12_0_0
   + 1.127852012701005 edge_2_13_0_0 + 3.679926643165615 edge_2_16_0_0
   + 1.434608314152202 edge_3_1_0_0 + 3.5739275867127 edge_3_2_0_0
   + 3.6475106106535 edge_3_4_0_0 + 0.3205787758992518 edge_3_5_0_0
   + 3.628801253304 edge_3_6_0_0 + 1.651851898764 edge_3_7_0_0
   + 1.3841196651453 edge_3_8_0_0 + 1.4672633321346 edge_3_9_0_0
   + 2.26526686658 edge_3_10_0_0 + 0.49642501276608 edge_3_11_0_0
   - 0.045608409171689 edge_3_12_0_0 + 1.3955276694649 edge_3_13_0_0
   + 2.3494259354861 edge_3_16_0_0 - 0.4062692519778741 edge_4_1_0_0
   - 0.776635871057525 edge_4_3_0_0 - 0.0101435439654411 edge_4_6_0_0
   - 1.374202336945677 edge_4_7_0_0 - 0.1584563789669398 edge_4_8_0_0
   + 0.3014201027565652 edge_4_9_0_0 + 0.6488531955248489 edge_4_10_0_0
   - 0.5669079872225319 edge_4_11_0_0 - 0.5710533676859334 edge_4_13_0_0
   - 0.5287912300248141 edge_4_16_0_0 - 1.599895281217137 edge_5_4_0_0
   - 0.791807068525723 edge_5_9_0_0 - 0.0461736155401659 edge_5_10_0_0
   + 0.0989220377192441 edge_5_11_0_0 - 0.9783907591074034 edge_5_13_0_0
   + 0.0763436953718151 edge_6_1_0_0 + 0.9527645422718316 edge_6_2_0_0
   + 0.4051352083752 edge_6_3_0_0 + 0.5950448974681549 edge_6_4_0_0
   + 3.216682189047854 edge_6_5_0_0 + 0.7486395618686641 edge_6_7_0_0
   + 0.1613731156710652 edge_6_8_0_0 + 0.8430297662984542 edge_6_9_0_0
   + 2.37945888267681 edge_6_10_0_0 + 0.595099932872688 edge_6_11_0_0
   - 0.00344573211300667 edge_6_12_0_0 + 1.413966954871242 edge_6_13_0_0
   + 1.299891151585043 edge_6_16_0_0 + 1.896574265640395 edge_7_1_0_0
   + 1.0325471376896 edge_7_3_0_0 + 0.654768219223849 edge_7_4_0_0
   + 0.3441131684174024 edge_7_6_0_0 + 1.853834617540854 edge_7_8_0_0
   - 0.632189163942131 edge_7_9_0_0 + 0.1662398244207998 edge_7_10_0_0
   - 0.1723012219046172 edge_7_11_0_0 + 0.3676451813856418 edge_7_13_0_0
   + 1.820327961068779 edge_7_16_0_0 + 2.770876193942537 edge_8_1_0_0
   + 0.4726483492227779 edge_8_2_0_0 + 3.374330061676 edge_8_3_0_0
   + 2.148325819354405 edge_8_4_0_0 + 0.1167410906921807 edge_8_5_0_0
   + 1.981859139359588 edge_8_6_0_0 + 3.561519230424201 edge_8_7_0_0
   + 2.411171703668289 edge_8_9_0_0 + 2.41079441005247 edge_8_10_0_0
   + 1.332731335598844 edge_8_11_0_0 + 0.7131186825954849 edge_8_12_0_0
   + 2.650350413799155 edge_8_13_0_0 + 4.214243131632 edge_8_16_0_0
   - 1.073272587111127 edge_9_6_0_0 - 0.3659901372479129 edge_9_10_0_0
   - 0.6600325963675788 edge_9_13_0_0 - 0.4544710949669921 edge_10_1_0_0
   - 0.26280719595249 edge_10_3_0_0 - 0.2125597398251954 edge_10_4_0_0
   - 0.1974306149895946 edge_10_6_0_0 - 0.9118379692835684 edge_10_7_0_0
   - 0.2831837921132069 edge_10_8_0_0 - 0.490166430179305 edge_10_9_0_0
   + 0.6345012600921673 edge_10_11_0_0 + 0.0342631731061817 edge_10_12_0_0
   + 0.7999258993181173 edge_10_13_0_0 - 0.0381959446719 edge_10_16_0_0
   + 0.0478587086101119 edge_11_1_0_0 - 1.216423170638101 edge_11_2_0_0
   + 0.1501524613896627 edge_11_3_0_0 + 0.2795581486998304 edge_11_4_0_0
   + 0.100114363271109 edge_11_6_0_0 - 1.01528247828035 edge_11_7_0_0
   - 0.8659044150853755 edge_11_8_0_0 + 2.02358908917123 edge_11_10_0_0
   + 1.100794464161348 edge_11_12_0_0 + 1.1079620308308 edge_11_13_0_0
   + 1.24029658142358 edge_11_16_0_0 - 0.7495982938722521 edge_12_4_0_0
   - 1.122500067622531 edge_12_6_0_0 + 0.404970448193426 edge_12_10_0_0
   + 0.4581298631015394 edge_12_11_0_0 - 0.2872918093846499 edge_12_16_0_0
   + 0.0537786150432459 edge_13_1_0_0 - 0.4098364711073138 edge_13_2_0_0
   - 0.21047264851009 edge_13_3_0_0 - 0.2028339743360472 edge_13_4_0_0
   + 0.7065162042922397 edge_13_5_0_0 + 0.7043965378937173 edge_13_6_0_0
   + 1.047250425105934 edge_13_7_0_0 + 0.0107850202982471 edge_13_8_0_0
   - 0.1045592144465127 edge_13_9_0_0 + 2.396189024252147 edge_13_10_0_0
   + 3.59657981452088 edge_13_11_0_0 + 3.770128165392727 edge_13_12_0_0
   + 1.573864648846547 edge_13_16_0_0 - 1.363153131709741 edge_16_10_0_0
   - 0.983774682191171 edge_16_12_0_0 - 1.060699872716 edge_16_13_0_0
   + 0 pos_1_0 + 0 pos_2_0 + 0 pos_3_0 + 0 pos_4_0 + 0 pos_5_0 + 0 pos_6_0
   + 0 pos_7_0 + 0 pos_8_0 + 0 pos_9_0 + 0 pos_10_0 + 0 pos_11_0
   + 0 pos_12_0 + 0 pos_13_0 + 0 pos_16_0
Subject To
 one_parent_1: edge_0_1_0_0 + edge_1_1_0_0 + edge_2_1_0_0 + edge_3_1_0_0
   + edge_4_1_0_0 + edge_6_1_0_0 + edge_7_1_0_0 + edge_8_1_0_0
   + edge_10_1_0_0 + edge_11_1_0_0 + edge_13_1_0_0 = 1
 consume_one_flow_unit_1: flow_0_1_0_0 - flow_1_2_0_0 - flow_1_3_0_0
   - flow_1_4_0_0 - flow_1_6_0_0 - flow_1_7_0_0 - flow_1_8_0_0
   - flow_1_9_0_0 - flow_1_10_0_0 - flow_1_11_0_0 - flow_1_13_0_0
   - flow_1_16_0_0 + flow_2_1_0_0 + flow_3_1_0_0 + flow_4_1_0_0
   + flow_6_1_0_0 + flow_7_1_0_0 + flow_8_1_0_0 + flow_10_1_0_0
   + flow_11_1_0_0 + flow_13_1_0_0 = 1
 one_parent_2: edge_0_2_0_0 + edge_1_2_0_0 + edge_3_2_0_0 + edge_6_2_0_0
   + edge_8_2_0_0 + edge_11_2_0_0 + edge_13_2_0_0 = 1
 consume_one_flow_unit_2: flow_0_2_0_0 + flow_1_2_0_0 - flow_2_1_0_0
   - flow_2_3_0_0 - flow_2_4_0_0 - flow_2_6_0_0 - flow_2_7_0_0
   - flow_2_8_0_0 - flow_2_9_0_0 - flow_2_10_0_0 - flow_2_11_0_0
   - flow_2_12_0_0 - flow_2_13_0_0 - flow_2_16_0_0 + flow_3_2_0_0
   + flow_6_2_0_0 + flow_8_2_0_0 + flow_11_2_0_0 + flow_13_2_0_0 = 1
 one_parent_3: edge_0_3_0_0 + edge_1_3_0_0 + edge_2_3_0_0 + edge_4_3_0_0
   + edge_6_3_0_0 + edge_7_3_0_0 + edge_8_3_0_0 + edge_10_3_0_0
   + edge_11_3_0_0 + edge_13_3_0_0 = 1
 consume_one_flow_unit_3: flow_0_3_0_0 + flow_1_3_0_0 + flow_2_3_0_0
   - flow_3_1_0_0 - flow_3_2_0_0 - flow_3_4_0_0 - flow_3_5_0_0
   - flow_3_6_0_0 - flow_3_7_0_0 - flow_3_8_0_0 - flow_3_9_0_0
   - flow_3_10_0_0 - flow_3_11_0_0 - flow_3_12_0_0 - flow_3_13_0_0
   - flow_3_16_0_0 + flow_4_3_0_0 + flow_6_3_0_0 + flow_7_3_0_0
   + flow_8_3_0_0 + flow_10_3_0_0 + flow_11_3_0_0 + flow_13_3_0_0 = 1
 one_parent_4: edge_0_4_0_0 + edge_1_4_0_0 + edge_2_4_0_0 + edge_3_4_0_0
   + edge_5_4_0_0 + edge_6_4_0_0 + edge_7_4_0_0 + edge_8_4_0_0
   + edge_10_4_0_0 + edge_11_4_0_0 + edge_12_4_0_0 + edge_13_4_0_0 = 1
 consume_one_flow_unit_4: flow_0_4_0_0 + flow_1_4_0_0 + flow_2_4_0_0
   + flow_3_4_0_0 - flow_4_1_0_0 - flow_4_3_0_0 - flow_4_6_0_0
   - flow_4_7_0_0 - flow_4_8_0_0 - flow_4_9_0_0 - flow_4_10_0_0
   - flow_4_11_0_0 - flow_4_13_0_0 - flow_4_16_0_0 + flow_5_4_0_0
   + flow_6_4_0_0 + flow_7_4_0_0 + flow_8_4_0_0 + flow_10_4_0_0
   + flow_11_4_0_0 + flow_12_4_0_0 + flow_13_4_0_0 = 1
 one_parent_5: edge_3_5_0_0 + edge_6_5_0_0 + edge_8_5_0_0 + edge_13_5_0_0
   = 1
 consume_one_flow_unit_5: flow_3_5_0_0 - flow_5_4_0_0 - flow_5_9_0_0
   - flow_5_10_0_0 - flow_5_11_0_0 - flow_5_13_0_0 + flow_6_5_0_0
   + flow_8_5_0_0 + flow_13_5_0_0 = 1
 one_parent_6: edge_0_6_0_0 + edge_1_6_0_0 + edge_2_6_0_0 + edge_3_6_0_0
   + edge_4_6_0_0 + edge_7_6_0_0 + edge_8_6_0_0 + edge_9_6_0_0
   + edge_10_6_0_0 + edge_11_6_0_0 + edge_12_6_0_0 + edge_13_6_0_0 = 1
 consume_one_flow_unit_6: flow_0_6_0_0 + flow_1_6_0_0 + flow_2_6_0_0
   + flow_3_6_0_0 + flow_4_6_0_0 - flow_6_1_0_0 - flow_6_2_0_0
   - flow_6_3_0_0 - flow_6_4_0_0 - flow_6_5_0_0 - flow_6_7_0_0
   - flow_6_8_0_0 - flow_6_9_0_0 - flow_6_10_0_0 - flow_6_11_0_0
   - flow_6_12_0_0 - flow_6_13_0_0 - flow_6_16_0_0 + flow_7_6_0_0
   + flow_8_6_0_0 + flow_9_6_0_0 + flow_10_6_0_0 + flow_11_6_0_0
   + flow_12_6_0_0 + flow_13_6_0_0 = 1
 one_parent_7: edge_0_7_0_0 + edge_1_7_0_0 + edge_2_7_0_0 + edge_3_7_0_0
   + edge_4_7_0_0 + edge_6_7_0_0 + edge_8_7_0_0 + edge_10_7_0_0
   + edge_11_7_0_0 + edge_13_7_0_0 = 1
 consume_one_flow_unit_7: flow_0_7_0_0 + flow_1_7_0_0 + flow_2_7_0_0
   + flow_3_7_0_0 + flow_4_7_0_0 + flow_6_7_0_0 - flow_7_1_0_0
   - flow_7_3_0_0 - flow_7_4_0_0 - flow_7_6_0_0 - flow_7_8_0_0
   - flow_7_9_0_0 - flow_7_10_0_0 - flow_7_11_0_0 - flow_7_13_0_0
   - flow_7_16_0_0 + flow_8_7_0_0 + flow_10_7_0_0 + flow_11_7_0_0
   + flow_13_7_0_0 = 1
 one_parent_8: edge_0_8_0_0 + edge_1_8_0_0 + edge_2_8_0_0 + edge_3_8_0_0
   + edge_4_8_0_0 + edge_6_8_0_0 + edge_7_8_0_0 + edge_10_8_0_0
   + edge_11_8_0_0 + edge_13_8_0_0 = 1
 consume_one_flow_unit_8: flow_0_8_0_0 + flow_1_8_0_0 + flow_2_8_0_0
   + flow_3_8_0_0 + flow_4_8_0_0 + flow_6_8_0_0 + flow_7_8_0_0
   - flow_8_1_0_0 - flow_8_2_0_0 - flow_8_3_0_0 - flow_8_4_0_0
   - flow_8_5_0_0 - flow_8_6_0_0 - flow_8_7_0_0 - flow_8_9_0_0
   - flow_8_10_0_0 - flow_8_11_0_0 - flow_8_12_0_0 - flow_8_13_0_0
   - flow_8_16_0_0 + flow_10_8_0_0 + flow_11_8_0_0 + flow_13_8_0_0 = 1
 one_parent_9: edge_1_9_0_0 + edge_2_9_0_0 + edge_3_9_0_0 + edge_4_9_0_0
   + edge_5_9_0_0 + edge_6_9_0_0 + edge_7_9_0_0 + edge_8_9_0_0
   + edge_10_9_0_0 + edge_13_9_0_0 = 1
 consume_one_flow_unit_9: flow_1_9_0_0 + flow_2_9_0_0 + flow_3_9_0_0
   + flow_4_9_0_0 + flow_5_9_0_0 + flow_6_9_0_0 + flow_7_9_0_0
   + flow_8_9_0_0 - flow_9_6_0_0 - flow_9_10_0_0 - flow_9_13_0_0
   + flow_10_9_0_0 + flow_13_9_0_0 = 1
 one_parent_10: edge_0_10_0_0 + edge_1_10_0_0 + edge_2_10_0_0
   + edge_3_10_0_0 + edge_4_10_0_0 + edge_5_10_0_0 + edge_6_10_0_0
   + edge_7_10_0_0 + edge_8_10_0_0 + edge_9_10_0_0 + edge_11_10_0_0
   + edge_12_10_0_0 + edge_13_10_0_0 + edge_16_10_0_0 = 1
 consume_one_flow_unit_10: flow_0_10_0_0 + flow_1_10_0_0 + flow_2_10_0_0
   + flow_3_10_0_0 + flow_4_10_0_0 + flow_5_10_0_0 + flow_6_10_0_0
   + flow_7_10_0_0 + flow_8_10_0_0 + flow_9_10_0_0 - flow_10_1_0_0
   - flow_10_3_0_0 - flow_10_4_0_0 - flow_10_6_0_0 - flow_10_7_0_0
   - flow_10_8_0_0 - flow_10_9_0_0 - flow_10_11_0_0 - flow_10_12_0_0
   - flow_10_13_0_0 - flow_10_16_0_0 + flow_11_10_0_0 + flow_12_10_0_0
   + flow_13_10_0_0 + flow_16_10_0_0 = 1
 one_parent_11: edge_0_11_0_0 + edge_1_11_0_0 + edge_2_11_0_0
   + edge_3_11_0_0 + edge_4_11_0_0 + edge_5_11_0_0 + edge_6_11_0_0
   + edge_7_11_0_0 + edge_8_11_0_0 + edge_10_11_0_0 + edge_12_11_0_0
   + edge_13_11_0_0 = 1
 consume_one_flow_unit_11: flow_0_11_0_0 + flow_1_11_0_0 + flow_2_11_0_0
   + flow_3_11_0_0 + flow_4_11_0_0 + flow_5_11_0_0 + flow_6_11_0_0
   + flow_7_11_0_0 + flow_8_11_0_0 + flow_10_11_0_0 - flow_11_1_0_0
   - flow_11_2_0_0 - flow_11_3_0_0 - flow_11_4_0_0 - flow_11_6_0_0
   - flow_11_7_0_0 - flow_11_8_0_0 - flow_11_10_0_0 - flow_11_12_0_0
   - flow_11_13_0_0 - flow_11_16_0_0 + flow_12_11_0_0 + flow_13_11_0_0 = 1
 one_parent_12: edge_2_12_0_0 + edge_3_12_0_0 + edge_6_12_0_0
   + edge_8_12_0_0 + edge_10_12_0_0 + edge_11_12_0_0 + edge_13_12_0_0
   + edge_16_12_0_0 = 1
 consume_one_flow_unit_12: flow_2_12_0_0 + flow_3_12_0_0 + flow_6_12_0_0
   + flow_8_12_0_0 + flow_10_12_0_0 + flow_11_12_0_0 - flow_12_4_0_0
   - flow_12_6_0_0 - flow_12_10_0_0 - flow_12_11_0_0 - flow_12_16_0_0
   + flow_13_12_0_0 + flow_16_12_0_0 = 1
 one_parent_13: edge_0_13_0_0 + edge_1_13_0_0 + edge_2_13_0_0
   + edge_3_13_0_0 + edge_4_13_0_0 + edge_5_13_0_0 + edge_6_13_0_0
   + edge_7_13_0_0 + edge_8_13_0_0 + edge_9_13_0_0 + edge_10_13_0_0
   + edge_11_13_0_0 + edge_16_13_0_0 = 1
 consume_one_flow_unit_13: flow_0_13_0_0 + flow_1_13_0_0 + flow_2_13_0_0
   + flow_3_13_0_0 + flow_4_13_0_0 + flow_5_13_0_0 + flow_6_13_0_0
   + flow_7_13_0_0 + flow_8_13_0_0 + flow_9_13_0_0 + flow_10_13_0_0
   + flow_11_13_0_0 - flow_13_1_0_0 - flow_13_2_0_0 - flow_13_3_0_0
   - flow_13_4_0_0 - flow_13_5_0_0 - flow_13_6_0_0 - flow_13_7_0_0
   - flow_13_8_0_0 - flow_13_9_0_0 - flow_13_10_0_0 - flow_13_11_0_0
   - flow_13_12_0_0 - flow_13_16_0_0 + flow_16_13_0_0 = 1
 one_parent_14: = 1
 consume_one_flow_unit_14: = 1
 one_parent_15: = 1
 consume_one_flow_unit_15: = 1
 one_parent_16: edge_1_16_0_0 + edge_2_16_0_0 + edge_3_16_0_0
   + edge_4_16_0_0 + edge_6_16_0_0 + edge_7_16_0_0 + edge_8_16_0_0
   + edge_10_16_0_0 + edge_11_16_0_0 + edge_12_16_0_0 + edge_13_16_0_0 = 1
 consume_one_flow_unit_16: flow_1_16_0_0 + flow_2_16_0_0 + flow_3_16_0_0
   + flow_4_16_0_0 + flow_6_16_0_0 + flow_7_16_0_0 + flow_8_16_0_0
   + flow_10_16_0_0 + flow_11_16_0_0 + flow_12_16_0_0 + flow_13_16_0_0
   - flow_16_10_0_0 - flow_16_12_0_0 - flow_16_13_0_0 = 1
 root_flow: flow_0_1_0_0 + flow_0_2_0_0 + flow_0_3_0_0 + flow_0_4_0_0
   + flow_0_6_0_0 + flow_0_7_0_0 + flow_0_8_0_0 + flow_0_10_0_0
   + flow_0_11_0_0 + flow_0_13_0_0 = 16
 inactive_no_flow_0_1_0_0: flow_0_1_0_0 - 1000 edge_0_1_0_0 <= 0
 inactive_no_flow_0_2_0_0: flow_0_2_0_0 - 1000 edge_0_2_0_0 <= 0
 inactive_no_flow_0_3_0_0: flow_0_3_0_0 - 1000 edge_0_3_0_0 <= 0
 inactive_no_flow_0_4_0_0: flow_0_4_0_0 - 1000 edge_0_4_0_0 <= 0
 inactive_no_flow_0_6_0_0: flow_0_6_0_0 - 1000 edge_0_6_0_0 <= 0
 inactive_no_flow_0_7_0_0: flow_0_7_0_0 - 1000 edge_0_7_0_0 <= 0
 inactive_no_flow_0_8_0_0: flow_0_8_0_0 - 1000 edge_0_8_0_0 <= 0
 inactive_no_flow_0_10_0_0: flow_0_10_0_0 - 1000 edge_0_10_0_0 <= 0
 inactive_no_flow_0_11_0_0: flow_0_11_0_0 - 1000 edge_0_11_0_0 <= 0
 inactive_no_flow_0_13_0_0: flow_0_13_0_0 - 1000 edge_0_13_0_0 <= 0
 inactive_no_flow_1_1_0_0: flow_1_1_0_0 - 1000 edge_1_1_0_0 <= 0
 inactive_no_flow_1_2_0_0: flow_1_2_0_0 - 1000 edge_1_2_0_0 <= 0
 inactive_no_flow_1_3_0_0: flow_1_3_0_0 - 1000 edge_1_3_0_0 <= 0
 inactive_no_flow_1_4_0_0: flow_1_4_0_0 - 1000 edge_1_4_0_0 <= 0
 inactive_no_flow_1_6_0_0: flow_1_6_0_0 - 1000 edge_1_6_0_0 <= 0
 inactive_no_flow_1_7_0_0: flow_1_7_0_0 - 1000 edge_1_7_0_0 <= 0
 inactive_no_flow_1_8_0_0: flow_1_8_0_0 - 1000 edge_1_8_0_0 <= 0
 inactive_no_flow_1_9_0_0: flow_1_9_0_0 - 1000 edge_1_9_0_0 <= 0
 inactive_no_flow_1_10_0_0: flow_1_10_0_0 - 1000 edge_1_10_0_0 <= 0
 inactive_no_flow_1_11_0_0: flow_1_11_0_0 - 1000 edge_1_11_0_0 <= 0
 inactive_no_flow_1_13_0_0: flow_1_13_0_0 - 1000 edge_1_13_0_0 <= 0
 inactive_no_flow_1_16_0_0: flow_1_16_0_0 - 1000 edge_1_16_0_0 <= 0
 inactive_no_flow_2_1_0_0: flow_2_1_0_0 - 1000 edge_2_1_0_0 <= 0
 inactive_no_flow_2_3_0_0: flow_2_3_0_0 - 1000 edge_2_3_0_0 <= 0
 inactive_no_flow_2_4_0_0: flow_2_4_0_0 - 1000 edge_2_4_0_0 <= 0
 inactive_no_flow_2_6_0_0: flow_2_6_0_0 - 1000 edge_2_6_0_0 <= 0
 inactive_no_flow_2_7_0_0: flow_2_7_0_0 - 1000 edge_2_7_0_0 <= 0
 inactive_no_flow_2_8_0_0: flow_2_8_0_0 - 1000 edge_2_8_0_0 <= 0
 inactive_no_flow_2_9_0_0: flow_2_9_0_0 - 1000 edge_2_9_0_0 <= 0
 inactive_no_flow_2_10_0_0: flow_2_10_0_0 - 1000 edge_2_10_0_0 <= 0
 inactive_no_flow_2_11_0_0: flow_2_11_0_0 - 1000 edge_2_11_0_0 <= 0
 inactive_no_flow_2_12_0_0: flow_2_12_0_0 - 1000 edge_2_12_0_0 <= 0
 inactive_no_flow_2_13_0_0: flow_2_13_0_0 - 1000 edge_2_13_0_0 <= 0
 inactive_no_flow_2_16_0_0: flow_2_16_0_0 - 1000 edge_2_16_0_0 <= 0
 inactive_no_flow_3_1_0_0: flow_3_1_0_0 - 1000 edge_3_1_0_0 <= 0
 inactive_no_flow_3_2_0_0: flow_3_2_0_0 - 1000 edge_3_2_0_0 <= 0
 inactive_no_flow_3_4_0_0: flow_3_4_0_0 - 1000 edge_3_4_0_0 <= 0
 inactive_no_flow_3_5_0_0: flow_3_5_0_0 - 1000 edge_3_5_0_0 <= 0
 inactive_no_flow_3_6_0_0: flow_3_6_0_0 - 1000 edge_3_6_0_0 <= 0
 inactive_no_flow_3_7_0_0: flow_3_7_0_0 - 1000 edge_3_7_0_0 <= 0
 inactive_no_flow_3_8_0_0: flow_3_8_0_0 - 1000 edge_3_8_0_0 <= 0
 inactive_no_flow_3_9_0_0: flow_3_9_0_0 - 1000 edge_3_9_0_0 <= 0
 inactive_no_flow_3_10_0_0: flow_3_10_0_0 - 1000 edge_3_10_0_0 <= 0
 inactive_no_flow_3_11_0_0: flow_3_11_0_0 - 1000 edge_3_11_0_0 <= 0
 inactive_no_flow_3_12_0_0: flow_3_12_0_0 - 1000 edge_3_12_0_0 <= 0
 inactive_no_flow_3_13_0_0: flow_3_13_0_0 - 1000 edge_3_13_0_0 <= 0
 inactive_no_flow_3_16_0_0: flow_3_16_0_0 - 1000 edge_3_16_0_0 <= 0
 inactive_no_flow_4_1_0_0: flow_4_1_0_0 - 1000 edge_4_1_0_0 <= 0
 inactive_no_flow_4_3_0_0: flow_4_3_0_0 - 1000 edge_4_3_0_0 <= 0
 inactive_no_flow_4_6_0_0: flow_4_6_0_0 - 1000 edge_4_6_0_0 <= 0
 inactive_no_flow_4_7_0_0: flow_4_7_0_0 - 1000 edge_4_7_0_0 <= 0
 inactive_no_flow_4_8_0_0: flow_4_8_0_0 - 1000 edge_4_8_0_0 <= 0
 inactive_no_flow_4_9_0_0: flow_4_9_0_0 - 1000 edge_4_9_0_0 <= 0
 inactive_no_flow_4_10_0_0: flow_4_10_0_0 - 1000 edge_4_10_0_0 <= 0
 inactive_no_flow_4_11_0_0: flow_4_11_0_0 - 1000 edge_4_11_0_0 <= 0
 inactive_no_flow_4_13_0_0: flow_4_13_0_0 - 1000 edge_4_13_0_0 <= 0
 inactive_no_flow_4_16_0_0: flow_4_16_0_0 - 1000 edge_4_16_0_0 <= 0
 inactive_no_flow_5_4_0_0: flow_5_4_0_0 - 1000 edge_5_4_0_0 <= 0
 inactive_no_flow_5_9_0_0: flow_5_9_0_0 - 1000 edge_5_9_0_0 <= 0
 inactive_no_flow_5_10_0_0: flow_5_10_0_0 - 1000 edge_5_10_0_0 <= 0
 inactive_no_flow_5_11_0_0: flow_5_11_0_0 - 1000 edge_5_11_0_0 <= 0
 inactive_no_flow_5_13_0_0: flow_5_13_0_0 - 1000 edge_5_13_0_0 <= 0
 inactive_no_flow_6_1_0_0: flow_6_1_0_0 - 1000 edge_6_1_0_0 <= 0
 inactive_no_flow_6_2_0_0: flow_6_2_0_0 - 1000 edge_6_2_0_0 <= 0
 inactive_no_flow_6_3_0_0: flow_6_3_0_0 - 1000 edge_6_3_0_0 <= 0
 inactive_no_flow_6_4_0_0: flow_6_4_0_0 - 1000 edge_6_4_0_0 <= 0
 inactive_no_flow_6_5_0_0: flow_6_5_0_0 - 1000 edge_6_5_0_0 <= 0
 inactive_no_flow_6_7_0_0: flow_6_7_0_0 - 1000 edge_6_7_0_0 <= 0
 inactive_no_flow_6_8_0_0: flow_6_8_0_0 - 1000 edge_6_8_0_0 <= 0
 inactive_no_flow_6_9_0_0: flow_6_9_0_0 - 1000 edge_6_9_0_0 <= 0
 inactive_no_flow_6_10_0_0: flow_6_10_0_0 - 1000 edge_6_10_0_0 <= 0
 inactive_no_flow_6_11_0_0: flow_6_11_0_0 - 1000 edge_6_11_0_0 <= 0
 inactive_no_flow_6_12_0_0: flow_6_12_0_0 - 1000 edge_6_12_0_0 <= 0
 inactive_no_flow_6_13_0_0: flow_6_13_0_0 - 1000 edge_6_13_0_0 <= 0
 inactive_no_flow_6_16_0_0: flow_6_16_0_0 - 1000 edge_6_16_0_0 <= 0
 inactive_no_flow_7_1_0_0: flow_7_1_0_0 - 1000 edge_7_1_0_0 <= 0
 inactive_no_flow_7_3_0_0: flow_7_3_0_0 - 1000 edge_7_3_0_0 <= 0
 inactive_no_flow_7_4_0_0: flow_7_4_0_0 - 1000 edge_7_4_0_0 <= 0
 inactive_no_flow_7_6_0_0: flow_7_6_0_0 - 1000 edge_7_6_0_0 <= 0
 inactive_no_flow_7_8_0_0: flow_7_8_0_0 - 1000 edge_7_8_0_0 <= 0
 inactive_no_flow_7_9_0_0: flow_7_9_0_0 - 1000 edge_7_9_0_0 <= 0
 inactive_no_flow_7_10_0_0: flow_7_10_0_0 - 1000 edge_7_10_0_0 <= 0
 inactive_no_flow_7_11_0_0: flow_7_11_0_0 - 1000 edge_7_11_0_0 <= 0
 inactive_no_flow_7_13_0_0: flow_7_13_0_0 - 1000 edge_7_13_0_0 <= 0
 inactive_no_flow_7_16_0_0: flow_7_16_0_0 - 1000 edge_7_16_0_0 <= 0
 inactive_no_flow_8_1_0_0: flow_8_1_0_0 - 1000 edge_8_1_0_0 <= 0
 inactive_no_flow_8_2_0_0: flow_8_2_0_0 - 1000 edge_8_2_0_0 <= 0
 inactive_no_flow_8_3_0_0: flow_8_3_0_0 - 1000 edge_8_3_0_0 <= 0
 inactive_no_flow_8_4_0_0: flow_8_4_0_0 - 1000 edge_8_4_0_0 <= 0
 inactive_no_flow_8_5_0_0: flow_8_5_0_0 - 1000 edge_8_5_0_0 <= 0
 inactive_no_flow_8_6_0_0: flow_8_6_0_0 - 1000 edge_8_6_0_0 <= 0
 inactive_no_flow_8_7_0_0: flow_8_7_0_0 - 1000 edge_8_7_0_0 <= 0
 inactive_no_flow_8_9_0_0: flow_8_9_0_0 - 1000 edge_8_9_0_0 <= 0
 inactive_no_flow_8_10_0_0: flow_8_10_0_0 - 1000 edge_8_10_0_0 <= 0
 inactive_no_flow_8_11_0_0: flow_8_11_0_0 - 1000 edge_8_11_0_0 <= 0
 inactive_no_flow_8_12_0_0: flow_8_12_0_0 - 1000 edge_8_12_0_0 <= 0
 inactive_no_flow_8_13_0_0: flow_8_13_0_0 - 1000 edge_8_13_0_0 <= 0
 inactive_no_flow_8_16_0_0: flow_8_16_0_0 - 1000 edge_8_16_0_0 <= 0
 inactive_no_flow_9_6_0_0: flow_9_6_0_0 - 1000 edge_9_6_0_0 <= 0
 inactive_no_flow_9_10_0_0: flow_9_10_0_0 - 1000 edge_9_10_0_0 <= 0
 inactive_no_flow_9_13_0_0: flow_9_13_0_0 - 1000 edge_9_13_0_0 <= 0
 inactive_no_flow_10_1_0_0: flow_10_1_0_0 - 1000 edge_10_1_0_0 <= 0
 inactive_no_flow_10_3_0_0: flow_10_3_0_0 - 1000 edge_10_3_0_0 <= 0
 inactive_no_flow_10_4_0_0: flow_10_4_0_0 - 1000 edge_10_4_0_0 <= 0
 inactive_no_flow_10_6_0_0: flow_10_6_0_0 - 1000 edge_10_6_0_0 <= 0
 inactive_no_flow_10_7_0_0: flow_10_7_0_0 - 1000 edge_10_7_0_0 <= 0
 inactive_no_flow_10_8_0_0: flow_10_8_0_0 - 1000 edge_10_8_0_0 <= 0
 inactive_no_flow_10_9_0_0: flow_10_9_0_0 - 1000 edge_10_9_0_0 <= 0
 inactive_no_flow_10_11_0_0: flow_10_11_0_0 - 1000 edge_10_11_0_0 <= 0
 inactive_no_flow_10_12_0_0: flow_10_12_0_0 - 1000 edge_10_12_0_0 <= 0
 inactive_no_flow_10_13_0_0: flow_10_13_0_0 - 1000 edge_10_13_0_0 <= 0
 inactive_no_flow_10_16_0_0: flow_10_16_0_0 - 1000 edge_10_16_0_0 <= 0
 inactive_no_flow_11_1_0_0: flow_11_1_0_0 - 1000 edge_11_1_0_0 <= 0
 inactive_no_flow_11_2_0_0: flow_11_2_0_0 - 1000 edge_11_2_0_0 <= 0
 inactive_no_flow_11_3_0_0: flow_11_3_0_0 - 1000 edge_11_3_0_0 <= 0
 inactive_no_flow_11_4_0_0: flow_11_4_0_0 - 1000 edge_11_4_0_0 <= 0
 inactive_no_flow_11_6_0_0: flow_11_6_0_0 - 1000 edge_11_6_0_0 <= 0
 inactive_no_flow_11_7_0_0: flow_11_7_0_0 - 1000 edge_11_7_0_0 <= 0
 inactive_no_flow_11_8_0_0: flow_11_8_0_0 - 1000 edge_11_8_0_0 <= 0
 inactive_no_flow_11_10_0_0: flow_11_10_0_0 - 1000 edge_11_10_0_0 <= 0
 inactive_no_flow_11_12_0_0: flow_11_12_0_0 - 1000 edge_11_12_0_0 <= 0
 inactive_no_flow_11_13_0_0: flow_11_13_0_0 - 1000 edge_11_13_0_0 <= 0
 inactive_no_flow_11_16_0_0: flow_11_16_0_0 - 1000 edge_11_16_0_0 <= 0
 inactive_no_flow_12_4_0_0: flow_12_4_0_0 - 1000 edge_12_4_0_0 <= 0
 inactive_no_flow_12_6_0_0: flow_12_6_0_0 - 1000 edge_12_6_0_0 <= 0
 inactive_no_flow_12_10_0_0: flow_12_10_0_0 - 1000 edge_12_10_0_0 <= 0
 inactive_no_flow_12_11_0_0: flow_12_11_0_0 - 1000 edge_12_11_0_0 <= 0
 inactive_no_flow_12_16_0_0: flow_12_16_0_0 - 1000 edge_12_16_0_0 <= 0
 inactive_no_flow_13_1_0_0: flow_13_1_0_0 - 1000 edge_13_1_0_0 <= 0
 inactive_no_flow_13_2_0_0: flow_13_2_0_0 - 1000 edge_13_2_0_0 <= 0
 inactive_no_flow_13_3_0_0: flow_13_3_0_0 - 1000 edge_13_3_0_0 <= 0
 inactive_no_flow_13_4_0_0: flow_13_4_0_0 - 1000 edge_13_4_0_0 <= 0
 inactive_no_flow_13_5_0_0: flow_13_5_0_0 - 1000 edge_13_5_0_0 <= 0
 inactive_no_flow_13_6_0_0: flow_13_6_0_0 - 1000 edge_13_6_0_0 <= 0
 inactive_no_flow_13_7_0_0: flow_13_7_0_0 - 1000 edge_13_7_0_0 <= 0
 inactive_no_flow_13_8_0_0: flow_13_8_0_0 - 1000 edge_13_8_0_0 <= 0
 inactive_no_flow_13_9_0_0: flow_13_9_0_0 - 1000 edge_13_9_0_0 <= 0
 inactive_no_flow_13_10_0_0: flow_13_10_0_0 - 1000 edge_13_10_0_0 <= 0
 inactive_no_flow_13_11_0_0: flow_13_11_0_0 - 1000 edge_13_11_0_0 <= 0
 inactive_no_flow_13_12_0_0: flow_13_12_0_0 - 1000 edge_13_12_0_0 <= 0
 inactive_no_flow_13_16_0_0: flow_13_16_0_0 - 1000 edge_13_16_0_0 <= 0
 inactive_no_flow_16_10_0_0: flow_16_10_0_0 - 1000 edge_16_10_0_0 <= 0
 inactive_no_flow_16_12_0_0: flow_16_12_0_0 - 1000 edge_16_12_0_0 <= 0
 inactive_no_flow_16_13_0_0: flow_16_13_0_0 - 1000 edge_16_13_0_0 <= 0
Bounds
Binaries
 edge_0_1_0_0 edge_0_2_0_0 edge_0_3_0_0 edge_0_4_0_0 edge_0_6_0_0
 edge_0_7_0_0 edge_0_8_0_0 edge_0_10_0_0 edge_0_11_0_0 edge_0_13_0_0
 edge_1_1_0_0 edge_1_2_0_0 edge_1_3_0_0 edge_1_4_0_0 edge_1_6_0_0
 edge_1_7_0_0 edge_1_8_0_0 edge_1_9_0_0 edge_1_10_0_0 edge_1_11_0_0
 edge_1_13_0_0 edge_1_16_0_0 edge_2_1_0_0 edge_2_3_0_0 edge_2_4_0_0
 edge_2_6_0_0 edge_2_7_0_0 edge_2_8_0_0 edge_2_9_0_0 edge_2_10_0_0
 edge_2_11_0_0 edge_2_12_0_0 edge_2_13_0_0 edge_2_16_0_0 edge_3_1_0_0
 edge_3_2_0_0 edge_3_4_0_0 edge_3_5_0_0 edge_3_6_0_0 edge_3_7_0_0
 edge_3_8_0_0 edge_3_9_0_0 edge_3_10_0_0 edge_3_11_0_0 edge_3_12_0_0
 edge_3_13_0_0 edge_3_16_0_0 edge_4_1_0_0 edge_4_3_0_0 edge_4_6_0_0
 edge_4_7_0_0 edge_4_8_0_0 edge_4_9_0_0 edge_4_10_0_0 edge_4_11_0_0
 edge_4_13_0_0 edge_4_16_0_0 edge_5_4_0_0 edge_5_9_0_0 edge_5_10_0_0
 edge_5_11_0_0 edge_5_13_0_0 edge_6_1_0_0 edge_6_2_0_0 edge_6_3_0_0
 edge_6_4_0_0 edge_6_5_0_0 edge_6_7_0_0 edge_6_8_0_0 edge_6_9_0_0
 edge_6_10_0_0 edge_6_11_0_0 edge_6_12_0_0 edge_6_13_0_0 edge_6_16_0_0
 edge_7_1_0_0 edge_7_3_0_0 edge_7_4_0_0 edge_7_6_0_0 edge_7_8_0_0
 edge_7_9_0_0 edge_7_10_0_0 edge_7_11_0_0 edge_7_13_0_0 edge_7_16_0_0
 edge_8_1_0_0 edge_8_2_0_0 edge_8_3_0_0 edge_8_4_0_0 edge_8_5_0_0
 edge_8_6_0_0 edge_8_7_0_0 edge_8_9_0_0 edge_8_10_0_0 edge_8_11_0_0
 edge_8_12_0_0 edge_8_13_0_0 edge_8_16_0_0 edge_9_6_0_0 edge_9_10_0_0
 edge_9_13_0_0 edge_10_1_0_0 edge_10_3_0_0 edge_10_4_0_0 edge_10_6_0_0
 edge_10_7_0_0 edge_10_8_0_0 edge_10_9_0_0 edge_10_11_0_0 edge_10_12_0_0
 edge_10_13_0_0 edge_10_16_0_0 edge_11_1_0_0 edge_11_2_0_0 edge_11_3_0_0
 edge_11_4_0_0 edge_11_6_0_0 edge_11_7_0_0 edge_11_8_0_0 edge_11_10_0_0
 edge_11_12_0_0 edge_11_13_0_0 edge_11_16_0_0 edge_12_4_0_0 edge_12_6_0_0
 edge_12_10_0_0 edge_12_11_0_0 edge_12_16_0_0 edge_13_1_0_0 edge_13_2_0_0
 edge_13_3_0_0 edge_13_4_0_0 edge_13_5_0_0 edge_13_6_0_0 edge_13_7_0_0
 edge_13_8_0_0 edge_13_9_0_0 edge_13_10_0_0 edge_13_11_0_0 edge_13_12_0_0
 edge_13_16_0_0 edge_16_10_0_0 edge_16_12_0_0 edge_16_13_0_0 pos_1_0
 pos_2_0 pos_3_0 pos_4_0 pos_5_0 pos_6_0 pos_7_0 pos_8_0 pos_9_0 pos_10_0
 pos_11_0 pos_12_0 pos_13_0 pos_16_0
End
